data/lp_files/q3/60_3.lp
\ Model foo
\ LP format - for model browsing. Use MPS format to capture full model detail.
Minimize
  z
Subject To
 allocateEach[1]: x[1,1] + x[2,1] + x[3,1] = 1
 allocateEach[2]: x[1,2] + x[2,2] + x[3,2] = 1
 allocateEach[3]: x[1,3] + x[2,3] + x[3,3] = 1
 allocateEach[4]: x[1,4] + x[2,4] + x[3,4] = 1
 allocateEach[5]: x[1,5] + x[2,5] + x[3,5] = 1
 allocateEach[6]: x[1,6] + x[2,6] + x[3,6] = 1
 allocateEach[7]: x[1,7] + x[2,7] + x[3,7] = 1
 allocateEach[8]: x[1,8] + x[2,8] + x[3,8] = 1
 allocateEach[9]: x[1,9] + x[2,9] + x[3,9] = 1
 allocateEach[10]: x[1,10] + x[2,10] + x[3,10] = 1
 allocateEach[11]: x[1,11] + x[2,11] + x[3,11] = 1
 allocateEach[12]: x[1,12] + x[2,12] + x[3,12] = 1
 allocateEach[13]: x[1,13] + x[2,13] + x[3,13] = 1
 allocateEach[14]: x[1,14] + x[2,14] + x[3,14] = 1
 allocateEach[15]: x[1,15] + x[2,15] + x[3,15] = 1
 allocateEach[16]: x[1,16] + x[2,16] + x[3,16] = 1
 allocateEach[17]: x[1,17] + x[2,17] + x[3,17] = 1
 allocateEach[18]: x[1,18] + x[2,18] + x[3,18] = 1
 allocateEach[19]: x[1,19] + x[2,19] + x[3,19] = 1
 allocateEach[20]: x[1,20] + x[2,20] + x[3,20] = 1
 allocateAllCash: cashProportion[1] + cashProportion[2] + cashProportion[3]
   = 1
 findWorstP[1,2]: z + 0.0205231347035946 cashProportion[1]
   - 0.0205231347035946 cashProportion[2] + 0.0322931524561061 x[1,1]
   + 0.0101076438415204 x[1,2] + 0.0201947645483371 x[1,3]
   + 0.0857046105222112 x[1,4] + 0.0999066197370986 x[1,5]
   + 0.0863305661306708 x[1,6] + 0.0544376148012847 x[1,7]
   + 0.0817949533611764 x[1,8] + 0.00432011985510667 x[1,9]
   + 0.0506510964484715 x[1,10] + 0.0711229233153072 x[1,11]
   + 0.0400919436434721 x[1,12] + 0.00394044186309017 x[1,13]
   + 6.3621717581143346e-04 x[1,14] + 0.0095329960698197 x[1,15]
   + 0.0974643667073709 x[1,16] + 0.0172394331510195 x[1,17]
   + 0.0744066248678823 x[1,18] + 0.0513283598936902 x[1,19]
   + 0.0879724169069584 x[1,20] - 0.0322931524561061 x[2,1]
   - 0.0101076438415204 x[2,2] - 0.0201947645483371 x[2,3]
   - 0.0857046105222112 x[2,4] - 0.0999066197370986 x[2,5]
   - 0.0863305661306708 x[2,6] - 0.0544376148012847 x[2,7]
   - 0.0817949533611764 x[2,8] - 0.00432011985510667 x[2,9]
   - 0.0506510964484715 x[2,10] - 0.0711229233153072 x[2,11]
   - 0.0400919436434721 x[2,12] - 0.00394044186309017 x[2,13]
   - 6.3621717581143346e-04 x[2,14] - 0.0095329960698197 x[2,15]
   - 0.0974643667073709 x[2,16] - 0.0172394331510195 x[2,17]
   - 0.0744066248678823 x[2,18] - 0.0513283598936902 x[2,19]
   - 0.0879724169069584 x[2,20] >= 0
 findWorstP[1,3]: z + 0.0205231347035946 cashProportion[1]
   - 0.0205231347035946 cashProportion[3] + 0.0322931524561061 x[1,1]
   + 0.0101076438415204 x[1,2] + 0.0201947645483371 x[1,3]
   + 0.0857046105222112 x[1,4] + 0.0999066197370986 x[1,5]
   + 0.0863305661306708 x[1,6] + 0.0544376148012847 x[1,7]
   + 0.0817949533611764 x[1,8] + 0.00432011985510667 x[1,9]
   + 0.0506510964484715 x[1,10] + 0.0711229233153072 x[1,11]
   + 0.0400919436434721 x[1,12] + 0.00394044186309017 x[1,13]
   + 6.3621717581143346e-04 x[1,14] + 0.0095329960698197 x[1,15]
   + 0.0974643667073709 x[1,16] + 0.0172394331510195 x[1,17]
   + 0.0744066248678823 x[1,18] + 0.0513283598936902 x[1,19]
   + 0.0879724169069584 x[1,20] - 0.0322931524561061 x[3,1]
   - 0.0101076438415204 x[3,2] - 0.0201947645483371 x[3,3]
   - 0.0857046105222112 x[3,4] - 0.0999066197370986 x[3,5]
   - 0.0863305661306708 x[3,6] - 0.0544376148012847 x[3,7]
   - 0.0817949533611764 x[3,8] - 0.00432011985510667 x[3,9]
   - 0.0506510964484715 x[3,10] - 0.0711229233153072 x[3,11]
   - 0.0400919436434721 x[3,12] - 0.00394044186309017 x[3,13]
   - 6.3621717581143346e-04 x[3,14] - 0.0095329960698197 x[3,15]
   - 0.0974643667073709 x[3,16] - 0.0172394331510195 x[3,17]
   - 0.0744066248678823 x[3,18] - 0.0513283598936902 x[3,19]
   - 0.0879724169069584 x[3,20] >= 0
 findWorstP[2,1]: z - 0.0220655567691612 cashProportion[1]
   + 0.0220655567691612 cashProportion[2] - 0.0480256843080793 x[1,1]
   - 8.82622e-05 x[1,2] - 0.0911638477917894 x[1,3]
   - 0.00684032259843996 x[1,4] - 0.0554838424960558 x[1,5]
   - 0.0881739648495681 x[1,6] - 0.0026147684771456 x[1,7]
   - 9.0468782753560834e-04 x[1,8] - 0.0816977239378193 x[1,9]
   - 0.1099195710455764 x[1,10] - 0.00349739074791205 x[1,11]
   - 0.0973201381303854 x[1,12] - 0.0705546177693929 x[1,13]
   - 0.00283542404483721 x[1,14] - 0.0832974768035834 x[1,15]
   - 0.0522071073158353 x[1,16] - 0.0729376979004623 x[1,17]
   - 0.0383499376648021 x[1,18] - 0.0186564282483258 x[1,19]
   - 0.0533655490462163 x[1,20] + 0.0480256843080793 x[2,1]
   + 8.82622e-05 x[2,2] + 0.0911638477917894 x[2,3]
   + 0.00684032259843996 x[2,4] + 0.0554838424960558 x[2,5]
   + 0.0881739648495681 x[2,6] + 0.0026147684771456 x[2,7]
   + 9.0468782753560834e-04 x[2,8] + 0.0816977239378193 x[2,9]
   + 0.1099195710455764 x[2,10] + 0.00349739074791205 x[2,11]
   + 0.0973201381303854 x[2,12] + 0.0705546177693929 x[2,13]
   + 0.00283542404483721 x[2,14] + 0.0832974768035834 x[2,15]
   + 0.0522071073158353 x[2,16] + 0.0729376979004623 x[2,17]
   + 0.0383499376648021 x[2,18] + 0.0186564282483258 x[2,19]
   + 0.0533655490462163 x[2,20] >= 0
 findWorstP[2,3]: z + 0.0220655567691612 cashProportion[2]
   - 0.0220655567691612 cashProportion[3] + 0.0480256843080793 x[2,1]
   + 8.82622e-05 x[2,2] + 0.0911638477917894 x[2,3]
   + 0.00684032259843996 x[2,4] + 0.0554838424960558 x[2,5]
   + 0.0881739648495681 x[2,6] + 0.0026147684771456 x[2,7]
   + 9.0468782753560834e-04 x[2,8] + 0.0816977239378193 x[2,9]
   + 0.1099195710455764 x[2,10] + 0.00349739074791205 x[2,11]
   + 0.0973201381303854 x[2,12] + 0.0705546177693929 x[2,13]
   + 0.00283542404483721 x[2,14] + 0.0832974768035834 x[2,15]
   + 0.0522071073158353 x[2,16] + 0.0729376979004623 x[2,17]
   + 0.0383499376648021 x[2,18] + 0.0186564282483258 x[2,19]
   + 0.0533655490462163 x[2,20] - 0.0480256843080793 x[3,1]
   - 8.82622e-05 x[3,2] - 0.0911638477917894 x[3,3]
   - 0.00684032259843996 x[3,4] - 0.0554838424960558 x[3,5]
   - 0.0881739648495681 x[3,6] - 0.0026147684771456 x[3,7]
   - 9.0468782753560834e-04 x[3,8] - 0.0816977239378193 x[3,9]
   - 0.1099195710455764 x[3,10] - 0.00349739074791205 x[3,11]
   - 0.0973201381303854 x[3,12] - 0.0705546177693929 x[3,13]
   - 0.00283542404483721 x[3,14] - 0.0832974768035834 x[3,15]
   - 0.0522071073158353 x[3,16] - 0.0729376979004623 x[3,17]
   - 0.0383499376648021 x[3,18] - 0.0186564282483258 x[3,19]
   - 0.0533655490462163 x[3,20] >= 0
 findWorstP[3,1]: z - 0.0165958576739246 cashProportion[1]
   + 0.0165958576739246 cashProportion[3] - 0.0658274694636219 x[1,1]
   - 0.021566317047265 x[1,2] - 0.0398051646309081 x[1,3]
   - 0.0554218667020712 x[1,4] - 0.0791954328199681 x[1,5]
   - 0.0201058815719596 x[1,6] - 0.0362038635156665 x[1,7]
   - 0.0203299256505576 x[1,8] - 0.0749551911842804 x[1,9]
   - 0.0476716011683484 x[1,10] - 0.0470575544344132 x[1,11]
   - 0.0195499203398832 x[1,12] - 0.047099044078598 x[1,13]
   - 0.0619357408390866 x[1,14] - 0.0777266994158258 x[1,15]
   - 0.0751128518321827 x[1,16] - 0.0589069968135953 x[1,17]
   - 0.0353491768454594 x[1,18] - 0.0614959506107276 x[1,19]
   - 0.0380874933616569 x[1,20] + 0.0658274694636219 x[3,1]
   + 0.021566317047265 x[3,2] + 0.0398051646309081 x[3,3]
   + 0.0554218667020712 x[3,4] + 0.0791954328199681 x[3,5]
   + 0.0201058815719596 x[3,6] + 0.0362038635156665 x[3,7]
   + 0.0203299256505576 x[3,8] + 0.0749551911842804 x[3,9]
   + 0.0476716011683484 x[3,10] + 0.0470575544344132 x[3,11]
   + 0.0195499203398832 x[3,12] + 0.047099044078598 x[3,13]
   + 0.0619357408390866 x[3,14] + 0.0777266994158258 x[3,15]
   + 0.0751128518321827 x[3,16] + 0.0589069968135953 x[3,17]
   + 0.0353491768454594 x[3,18] + 0.0614959506107276 x[3,19]
   + 0.0380874933616569 x[3,20] >= 0
 findWorstP[3,2]: z - 0.0165958576739246 cashProportion[2]
   + 0.0165958576739246 cashProportion[3] - 0.0658274694636219 x[2,1]
   - 0.021566317047265 x[2,2] - 0.0398051646309081 x[2,3]
   - 0.0554218667020712 x[2,4] - 0.0791954328199681 x[2,5]
   - 0.0201058815719596 x[2,6] - 0.0362038635156665 x[2,7]
   - 0.0203299256505576 x[2,8] - 0.0749551911842804 x[2,9]
   - 0.0476716011683484 x[2,10] - 0.0470575544344132 x[2,11]
   - 0.0195499203398832 x[2,12] - 0.047099044078598 x[2,13]
   - 0.0619357408390866 x[2,14] - 0.0777266994158258 x[2,15]
   - 0.0751128518321827 x[2,16] - 0.0589069968135953 x[2,17]
   - 0.0353491768454594 x[2,18] - 0.0614959506107276 x[2,19]
   - 0.0380874933616569 x[2,20] + 0.0658274694636219 x[3,1]
   + 0.021566317047265 x[3,2] + 0.0398051646309081 x[3,3]
   + 0.0554218667020712 x[3,4] + 0.0791954328199681 x[3,5]
   + 0.0201058815719596 x[3,6] + 0.0362038635156665 x[3,7]
   + 0.0203299256505576 x[3,8] + 0.0749551911842804 x[3,9]
   + 0.0476716011683484 x[3,10] + 0.0470575544344132 x[3,11]
   + 0.0195499203398832 x[3,12] + 0.047099044078598 x[3,13]
   + 0.0619357408390866 x[3,14] + 0.0777266994158258 x[3,15]
   + 0.0751128518321827 x[3,16] + 0.0589069968135953 x[3,17]
   + 0.0353491768454594 x[3,18] + 0.0614959506107276 x[3,19]
   + 0.0380874933616569 x[3,20] >= 0
Bounds
 z <= 1
 -infinity <= cashProportion[1] <= 1
 -infinity <= cashProportion[2] <= 1
 -infinity <= cashProportion[3] <= 1
Binaries
 x[1,1] x[1,2] x[1,3] x[1,4] x[1,5] x[1,6] x[1,7] x[1,8] x[1,9] x[1,10]
 x[1,11] x[1,12] x[1,13] x[1,14] x[1,15] x[1,16] x[1,17] x[1,18] x[1,19]
 x[1,20] x[2,1] x[2,2] x[2,3] x[2,4] x[2,5] x[2,6] x[2,7] x[2,8] x[2,9]
 x[2,10] x[2,11] x[2,12] x[2,13] x[2,14] x[2,15] x[2,16] x[2,17] x[2,18]
 x[2,19] x[2,20] x[3,1] x[3,2] x[3,3] x[3,4] x[3,5] x[3,6] x[3,7] x[3,8]
 x[3,9] x[3,10] x[3,11] x[3,12] x[3,13] x[3,14] x[3,15] x[3,16] x[3,17]
 x[3,18] x[3,19] x[3,20]
End
