data/mps_files/pEFS/60_3.mps
NAME foo
ROWS
 N  OBJ
 E  allocateEach[1]
 E  allocateEach[2]
 E  allocateEach[3]
 E  allocateEach[4]
 E  allocateEach[5]
 E  allocateEach[6]
 E  allocateEach[7]
 E  allocateEach[8]
 E  allocateEach[9]
 E  allocateEach[10]
 E  allocateEach[11]
 E  allocateEach[12]
 E  allocateEach[13]
 E  allocateEach[14]
 E  allocateEach[15]
 E  allocateEach[16]
 E  allocateEach[17]
 E  allocateEach[18]
 E  allocateEach[19]
 E  allocateEach[20]
 E  allocateAllCash
 G  findWorstP[1,2]
 G  findWorstP[1,3]
 G  findWorstP[2,1]
 G  findWorstP[2,3]
 G  findWorstP[3,1]
 G  findWorstP[3,2]
COLUMNS
    z         OBJ       1
    z         findWorstP[1,2]  1
    z         findWorstP[1,3]  1
    z         findWorstP[2,1]  1
    z         findWorstP[2,3]  1
    z         findWorstP[3,1]  1
    z         findWorstP[3,2]  1
    cashProportion[1]  allocateAllCash  1
    cashProportion[1]  findWorstP[1,2]  2.0523134703594629e-02
    cashProportion[1]  findWorstP[1,3]  2.0523134703594629e-02
    cashProportion[1]  findWorstP[2,1]  -2.2065556769161179e-02
    cashProportion[1]  findWorstP[3,1]  -1.6595857673924592e-02
    cashProportion[2]  allocateAllCash  1
    cashProportion[2]  findWorstP[1,2]  -2.0523134703594629e-02
    cashProportion[2]  findWorstP[2,1]  2.2065556769161179e-02
    cashProportion[2]  findWorstP[2,3]  2.2065556769161179e-02
    cashProportion[2]  findWorstP[3,2]  -1.6595857673924592e-02
    cashProportion[3]  allocateAllCash  1
    cashProportion[3]  findWorstP[1,3]  -2.0523134703594629e-02
    cashProportion[3]  findWorstP[2,3]  -2.2065556769161179e-02
    cashProportion[3]  findWorstP[3,1]  1.6595857673924592e-02
    cashProportion[3]  findWorstP[3,2]  1.6595857673924592e-02
    MARKER    'MARKER'                 'INTORG'
    x[1,1]    allocateEach[1]  1
    x[1,1]    findWorstP[1,2]  3.2293152456106144e-02
    x[1,1]    findWorstP[1,3]  3.2293152456106144e-02
    x[1,1]    findWorstP[2,1]  -4.8025684308079304e-02
    x[1,1]    findWorstP[3,1]  -6.5827469463621890e-02
    x[1,2]    allocateEach[2]  1
    x[1,2]    findWorstP[1,2]  1.0107643841520355e-02
    x[1,2]    findWorstP[1,3]  1.0107643841520355e-02
    x[1,2]    findWorstP[2,1]  -8.8262227076644709e-05
    x[1,2]    findWorstP[3,1]  -2.1566317047265009e-02
    x[1,3]    allocateEach[3]  1
    x[1,3]    findWorstP[1,2]  2.0194764548337116e-02
    x[1,3]    findWorstP[1,3]  2.0194764548337116e-02
    x[1,3]    findWorstP[2,1]  -0.0911638477917894
    x[1,3]    findWorstP[3,1]  -3.9805164630908135e-02
    x[1,4]    allocateEach[4]  1
    x[1,4]    findWorstP[1,2]  8.5704610522211178e-02
    x[1,4]    findWorstP[1,3]  8.5704610522211178e-02
    x[1,4]    findWorstP[2,1]  -6.8403225984399645e-03
    x[1,4]    findWorstP[3,1]  -5.5421866702071179e-02
    x[1,5]    allocateEach[5]  1
    x[1,5]    findWorstP[1,2]  9.9906619737098648e-02
    x[1,5]    findWorstP[1,3]  9.9906619737098648e-02
    x[1,5]    findWorstP[2,1]  -5.5483842496055778e-02
    x[1,5]    findWorstP[3,1]  -7.9195432819968145e-02
    x[1,6]    allocateEach[6]  1
    x[1,6]    findWorstP[1,2]  0.0863305661306708
    x[1,6]    findWorstP[1,3]  0.0863305661306708
    x[1,6]    findWorstP[2,1]  -8.8173964849568062e-02
    x[1,6]    findWorstP[3,1]  -2.0105881571959642e-02
    x[1,7]    allocateEach[7]  1
    x[1,7]    findWorstP[1,2]  5.4437614801284749e-02
    x[1,7]    findWorstP[1,3]  5.4437614801284749e-02
    x[1,7]    findWorstP[2,1]  -2.6147684771455995e-03
    x[1,7]    findWorstP[3,1]  -0.0362038635156665
    x[1,8]    allocateEach[8]  1
    x[1,8]    findWorstP[1,2]  0.0817949533611764
    x[1,8]    findWorstP[1,3]  0.0817949533611764
    x[1,8]    findWorstP[2,1]  -9.0468782753560834e-04
    x[1,8]    findWorstP[3,1]  -2.0329925650557624e-02
    x[1,9]    allocateEach[9]  1
    x[1,9]    findWorstP[1,2]  4.3201198551066694e-03
    x[1,9]    findWorstP[1,3]  4.3201198551066694e-03
    x[1,9]    findWorstP[2,1]  -8.1697723937819267e-02
    x[1,9]    findWorstP[3,1]  -7.4955191184280415e-02
    x[1,10]   allocateEach[10]  1
    x[1,10]   findWorstP[1,2]  5.0651096448471537e-02
    x[1,10]   findWorstP[1,3]  5.0651096448471537e-02
    x[1,10]   findWorstP[2,1]  -1.0991957104557640e-01
    x[1,10]   findWorstP[3,1]  -4.7671601168348392e-02
    x[1,11]   allocateEach[11]  1
    x[1,11]   findWorstP[1,2]  7.1122923315307188e-02
    x[1,11]   findWorstP[1,3]  7.1122923315307188e-02
    x[1,11]   findWorstP[2,1]  -3.4973907479120465e-03
    x[1,11]   findWorstP[3,1]  -4.7057554434413180e-02
    x[1,12]   allocateEach[12]  1
    x[1,12]   findWorstP[1,2]  4.0091943643472107e-02
    x[1,12]   findWorstP[1,3]  4.0091943643472107e-02
    x[1,12]   findWorstP[2,1]  -9.7320138130385370e-02
    x[1,12]   findWorstP[3,1]  -1.9549920339883169e-02
    x[1,13]   allocateEach[13]  1
    x[1,13]   findWorstP[1,2]  3.9404418630901682e-03
    x[1,13]   findWorstP[1,3]  3.9404418630901682e-03
    x[1,13]   findWorstP[2,1]  -7.0554617769392855e-02
    x[1,13]   findWorstP[3,1]  -4.7099044078597989e-02
    x[1,14]   allocateEach[14]  1
    x[1,14]   findWorstP[1,2]  6.3621717581143346e-04
    x[1,14]   findWorstP[1,3]  6.3621717581143346e-04
    x[1,14]   findWorstP[2,1]  -2.8354240448372112e-03
    x[1,14]   findWorstP[3,1]  -6.1935740839086567e-02
    x[1,15]   allocateEach[15]  1
    x[1,15]   findWorstP[1,2]  9.5329960698197040e-03
    x[1,15]   findWorstP[1,3]  9.5329960698197040e-03
    x[1,15]   findWorstP[2,1]  -8.3297476803583445e-02
    x[1,15]   findWorstP[3,1]  -7.7726699415825815e-02
    x[1,16]   allocateEach[16]  1
    x[1,16]   findWorstP[1,2]  9.7464366707370881e-02
    x[1,16]   findWorstP[1,3]  9.7464366707370881e-02
    x[1,16]   findWorstP[2,1]  -5.2207107315835347e-02
    x[1,16]   findWorstP[3,1]  -0.0751128518321827
    x[1,17]   allocateEach[17]  1
    x[1,17]   findWorstP[1,2]  1.7239433151019491e-02
    x[1,17]   findWorstP[1,3]  1.7239433151019491e-02
    x[1,17]   findWorstP[2,1]  -7.2937697900462270e-02
    x[1,17]   findWorstP[3,1]  -5.8906996813595333e-02
    x[1,18]   allocateEach[18]  1
    x[1,18]   findWorstP[1,2]  7.4406624867882326e-02
    x[1,18]   findWorstP[1,3]  7.4406624867882326e-02
    x[1,18]   findWorstP[2,1]  -3.8349937664802124e-02
    x[1,18]   findWorstP[3,1]  -3.5349176845459379e-02
    x[1,19]   allocateEach[19]  1
    x[1,19]   findWorstP[1,2]  5.1328359893690161e-02
    x[1,19]   findWorstP[1,3]  5.1328359893690161e-02
    x[1,19]   findWorstP[2,1]  -1.8656428248325776e-02
    x[1,19]   findWorstP[3,1]  -6.1495950610727573e-02
    x[1,20]   allocateEach[20]  1
    x[1,20]   findWorstP[1,2]  8.7972416906958367e-02
    x[1,20]   findWorstP[1,3]  8.7972416906958367e-02
    x[1,20]   findWorstP[2,1]  -5.3365549046216307e-02
    x[1,20]   findWorstP[3,1]  -3.8087493361656941e-02
    x[2,1]    allocateEach[1]  1
    x[2,1]    findWorstP[1,2]  -3.2293152456106144e-02
    x[2,1]    findWorstP[2,1]  4.8025684308079304e-02
    x[2,1]    findWorstP[2,3]  4.8025684308079304e-02
    x[2,1]    findWorstP[3,2]  -6.5827469463621890e-02
    x[2,2]    allocateEach[2]  1
    x[2,2]    findWorstP[1,2]  -1.0107643841520355e-02
    x[2,2]    findWorstP[2,1]  8.8262227076644709e-05
    x[2,2]    findWorstP[2,3]  8.8262227076644709e-05
    x[2,2]    findWorstP[3,2]  -2.1566317047265009e-02
    x[2,3]    allocateEach[3]  1
    x[2,3]    findWorstP[1,2]  -2.0194764548337116e-02
    x[2,3]    findWorstP[2,1]  0.0911638477917894
    x[2,3]    findWorstP[2,3]  0.0911638477917894
    x[2,3]    findWorstP[3,2]  -3.9805164630908135e-02
    x[2,4]    allocateEach[4]  1
    x[2,4]    findWorstP[1,2]  -8.5704610522211178e-02
    x[2,4]    findWorstP[2,1]  6.8403225984399645e-03
    x[2,4]    findWorstP[2,3]  6.8403225984399645e-03
    x[2,4]    findWorstP[3,2]  -5.5421866702071179e-02
    x[2,5]    allocateEach[5]  1
    x[2,5]    findWorstP[1,2]  -9.9906619737098648e-02
    x[2,5]    findWorstP[2,1]  5.5483842496055778e-02
    x[2,5]    findWorstP[2,3]  5.5483842496055778e-02
    x[2,5]    findWorstP[3,2]  -7.9195432819968145e-02
    x[2,6]    allocateEach[6]  1
    x[2,6]    findWorstP[1,2]  -0.0863305661306708
    x[2,6]    findWorstP[2,1]  8.8173964849568062e-02
    x[2,6]    findWorstP[2,3]  8.8173964849568062e-02
    x[2,6]    findWorstP[3,2]  -2.0105881571959642e-02
    x[2,7]    allocateEach[7]  1
    x[2,7]    findWorstP[1,2]  -5.4437614801284749e-02
    x[2,7]    findWorstP[2,1]  2.6147684771455995e-03
    x[2,7]    findWorstP[2,3]  2.6147684771455995e-03
    x[2,7]    findWorstP[3,2]  -0.0362038635156665
    x[2,8]    allocateEach[8]  1
    x[2,8]    findWorstP[1,2]  -0.0817949533611764
    x[2,8]    findWorstP[2,1]  9.0468782753560834e-04
    x[2,8]    findWorstP[2,3]  9.0468782753560834e-04
    x[2,8]    findWorstP[3,2]  -2.0329925650557624e-02
    x[2,9]    allocateEach[9]  1
    x[2,9]    findWorstP[1,2]  -4.3201198551066694e-03
    x[2,9]    findWorstP[2,1]  8.1697723937819267e-02
    x[2,9]    findWorstP[2,3]  8.1697723937819267e-02
    x[2,9]    findWorstP[3,2]  -7.4955191184280415e-02
    x[2,10]   allocateEach[10]  1
    x[2,10]   findWorstP[1,2]  -5.0651096448471537e-02
    x[2,10]   findWorstP[2,1]  1.0991957104557640e-01
    x[2,10]   findWorstP[2,3]  1.0991957104557640e-01
    x[2,10]   findWorstP[3,2]  -4.7671601168348392e-02
    x[2,11]   allocateEach[11]  1
    x[2,11]   findWorstP[1,2]  -7.1122923315307188e-02
    x[2,11]   findWorstP[2,1]  3.4973907479120465e-03
    x[2,11]   findWorstP[2,3]  3.4973907479120465e-03
    x[2,11]   findWorstP[3,2]  -4.7057554434413180e-02
    x[2,12]   allocateEach[12]  1
    x[2,12]   findWorstP[1,2]  -4.0091943643472107e-02
    x[2,12]   findWorstP[2,1]  9.7320138130385370e-02
    x[2,12]   findWorstP[2,3]  9.7320138130385370e-02
    x[2,12]   findWorstP[3,2]  -1.9549920339883169e-02
    x[2,13]   allocateEach[13]  1
    x[2,13]   findWorstP[1,2]  -3.9404418630901682e-03
    x[2,13]   findWorstP[2,1]  7.0554617769392855e-02
    x[2,13]   findWorstP[2,3]  7.0554617769392855e-02
    x[2,13]   findWorstP[3,2]  -4.7099044078597989e-02
    x[2,14]   allocateEach[14]  1
    x[2,14]   findWorstP[1,2]  -6.3621717581143346e-04
    x[2,14]   findWorstP[2,1]  2.8354240448372112e-03
    x[2,14]   findWorstP[2,3]  2.8354240448372112e-03
    x[2,14]   findWorstP[3,2]  -6.1935740839086567e-02
    x[2,15]   allocateEach[15]  1
    x[2,15]   findWorstP[1,2]  -9.5329960698197040e-03
    x[2,15]   findWorstP[2,1]  8.3297476803583445e-02
    x[2,15]   findWorstP[2,3]  8.3297476803583445e-02
    x[2,15]   findWorstP[3,2]  -7.7726699415825815e-02
    x[2,16]   allocateEach[16]  1
    x[2,16]   findWorstP[1,2]  -9.7464366707370881e-02
    x[2,16]   findWorstP[2,1]  5.2207107315835347e-02
    x[2,16]   findWorstP[2,3]  5.2207107315835347e-02
    x[2,16]   findWorstP[3,2]  -0.0751128518321827
    x[2,17]   allocateEach[17]  1
    x[2,17]   findWorstP[1,2]  -1.7239433151019491e-02
    x[2,17]   findWorstP[2,1]  7.2937697900462270e-02
    x[2,17]   findWorstP[2,3]  7.2937697900462270e-02
    x[2,17]   findWorstP[3,2]  -5.8906996813595333e-02
    x[2,18]   allocateEach[18]  1
    x[2,18]   findWorstP[1,2]  -7.4406624867882326e-02
    x[2,18]   findWorstP[2,1]  3.8349937664802124e-02
    x[2,18]   findWorstP[2,3]  3.8349937664802124e-02
    x[2,18]   findWorstP[3,2]  -3.5349176845459379e-02
    x[2,19]   allocateEach[19]  1
    x[2,19]   findWorstP[1,2]  -5.1328359893690161e-02
    x[2,19]   findWorstP[2,1]  1.8656428248325776e-02
    x[2,19]   findWorstP[2,3]  1.8656428248325776e-02
    x[2,19]   findWorstP[3,2]  -6.1495950610727573e-02
    x[2,20]   allocateEach[20]  1
    x[2,20]   findWorstP[1,2]  -8.7972416906958367e-02
    x[2,20]   findWorstP[2,1]  5.3365549046216307e-02
    x[2,20]   findWorstP[2,3]  5.3365549046216307e-02
    x[2,20]   findWorstP[3,2]  -3.8087493361656941e-02
    x[3,1]    allocateEach[1]  1
    x[3,1]    findWorstP[1,3]  -3.2293152456106144e-02
    x[3,1]    findWorstP[2,3]  -4.8025684308079304e-02
    x[3,1]    findWorstP[3,1]  6.5827469463621890e-02
    x[3,1]    findWorstP[3,2]  6.5827469463621890e-02
    x[3,2]    allocateEach[2]  1
    x[3,2]    findWorstP[1,3]  -1.0107643841520355e-02
    x[3,2]    findWorstP[2,3]  -8.8262227076644709e-05
    x[3,2]    findWorstP[3,1]  2.1566317047265009e-02
    x[3,2]    findWorstP[3,2]  2.1566317047265009e-02
    x[3,3]    allocateEach[3]  1
    x[3,3]    findWorstP[1,3]  -2.0194764548337116e-02
    x[3,3]    findWorstP[2,3]  -0.0911638477917894
    x[3,3]    findWorstP[3,1]  3.9805164630908135e-02
    x[3,3]    findWorstP[3,2]  3.9805164630908135e-02
    x[3,4]    allocateEach[4]  1
    x[3,4]    findWorstP[1,3]  -8.5704610522211178e-02
    x[3,4]    findWorstP[2,3]  -6.8403225984399645e-03
    x[3,4]    findWorstP[3,1]  5.5421866702071179e-02
    x[3,4]    findWorstP[3,2]  5.5421866702071179e-02
    x[3,5]    allocateEach[5]  1
    x[3,5]    findWorstP[1,3]  -9.9906619737098648e-02
    x[3,5]    findWorstP[2,3]  -5.5483842496055778e-02
    x[3,5]    findWorstP[3,1]  7.9195432819968145e-02
    x[3,5]    findWorstP[3,2]  7.9195432819968145e-02
    x[3,6]    allocateEach[6]  1
    x[3,6]    findWorstP[1,3]  -0.0863305661306708
    x[3,6]    findWorstP[2,3]  -8.8173964849568062e-02
    x[3,6]    findWorstP[3,1]  2.0105881571959642e-02
    x[3,6]    findWorstP[3,2]  2.0105881571959642e-02
    x[3,7]    allocateEach[7]  1
    x[3,7]    findWorstP[1,3]  -5.4437614801284749e-02
    x[3,7]    findWorstP[2,3]  -2.6147684771455995e-03
    x[3,7]    findWorstP[3,1]  0.0362038635156665
    x[3,7]    findWorstP[3,2]  0.0362038635156665
    x[3,8]    allocateEach[8]  1
    x[3,8]    findWorstP[1,3]  -0.0817949533611764
    x[3,8]    findWorstP[2,3]  -9.0468782753560834e-04
    x[3,8]    findWorstP[3,1]  2.0329925650557624e-02
    x[3,8]    findWorstP[3,2]  2.0329925650557624e-02
    x[3,9]    allocateEach[9]  1
    x[3,9]    findWorstP[1,3]  -4.3201198551066694e-03
    x[3,9]    findWorstP[2,3]  -8.1697723937819267e-02
    x[3,9]    findWorstP[3,1]  7.4955191184280415e-02
    x[3,9]    findWorstP[3,2]  7.4955191184280415e-02
    x[3,10]   allocateEach[10]  1
    x[3,10]   findWorstP[1,3]  -5.0651096448471537e-02
    x[3,10]   findWorstP[2,3]  -1.0991957104557640e-01
    x[3,10]   findWorstP[3,1]  4.7671601168348392e-02
    x[3,10]   findWorstP[3,2]  4.7671601168348392e-02
    x[3,11]   allocateEach[11]  1
    x[3,11]   findWorstP[1,3]  -7.1122923315307188e-02
    x[3,11]   findWorstP[2,3]  -3.4973907479120465e-03
    x[3,11]   findWorstP[3,1]  4.7057554434413180e-02
    x[3,11]   findWorstP[3,2]  4.7057554434413180e-02
    x[3,12]   allocateEach[12]  1
    x[3,12]   findWorstP[1,3]  -4.0091943643472107e-02
    x[3,12]   findWorstP[2,3]  -9.7320138130385370e-02
    x[3,12]   findWorstP[3,1]  1.9549920339883169e-02
    x[3,12]   findWorstP[3,2]  1.9549920339883169e-02
    x[3,13]   allocateEach[13]  1
    x[3,13]   findWorstP[1,3]  -3.9404418630901682e-03
    x[3,13]   findWorstP[2,3]  -7.0554617769392855e-02
    x[3,13]   findWorstP[3,1]  4.7099044078597989e-02
    x[3,13]   findWorstP[3,2]  4.7099044078597989e-02
    x[3,14]   allocateEach[14]  1
    x[3,14]   findWorstP[1,3]  -6.3621717581143346e-04
    x[3,14]   findWorstP[2,3]  -2.8354240448372112e-03
    x[3,14]   findWorstP[3,1]  6.1935740839086567e-02
    x[3,14]   findWorstP[3,2]  6.1935740839086567e-02
    x[3,15]   allocateEach[15]  1
    x[3,15]   findWorstP[1,3]  -9.5329960698197040e-03
    x[3,15]   findWorstP[2,3]  -8.3297476803583445e-02
    x[3,15]   findWorstP[3,1]  7.7726699415825815e-02
    x[3,15]   findWorstP[3,2]  7.7726699415825815e-02
    x[3,16]   allocateEach[16]  1
    x[3,16]   findWorstP[1,3]  -9.7464366707370881e-02
    x[3,16]   findWorstP[2,3]  -5.2207107315835347e-02
    x[3,16]   findWorstP[3,1]  0.0751128518321827
    x[3,16]   findWorstP[3,2]  0.0751128518321827
    x[3,17]   allocateEach[17]  1
    x[3,17]   findWorstP[1,3]  -1.7239433151019491e-02
    x[3,17]   findWorstP[2,3]  -7.2937697900462270e-02
    x[3,17]   findWorstP[3,1]  5.8906996813595333e-02
    x[3,17]   findWorstP[3,2]  5.8906996813595333e-02
    x[3,18]   allocateEach[18]  1
    x[3,18]   findWorstP[1,3]  -7.4406624867882326e-02
    x[3,18]   findWorstP[2,3]  -3.8349937664802124e-02
    x[3,18]   findWorstP[3,1]  3.5349176845459379e-02
    x[3,18]   findWorstP[3,2]  3.5349176845459379e-02
    x[3,19]   allocateEach[19]  1
    x[3,19]   findWorstP[1,3]  -5.1328359893690161e-02
    x[3,19]   findWorstP[2,3]  -1.8656428248325776e-02
    x[3,19]   findWorstP[3,1]  6.1495950610727573e-02
    x[3,19]   findWorstP[3,2]  6.1495950610727573e-02
    x[3,20]   allocateEach[20]  1
    x[3,20]   findWorstP[1,3]  -8.7972416906958367e-02
    x[3,20]   findWorstP[2,3]  -5.3365549046216307e-02
    x[3,20]   findWorstP[3,1]  3.8087493361656941e-02
    x[3,20]   findWorstP[3,2]  3.8087493361656941e-02
    MARKER    'MARKER'                 'INTEND'
RHS
    RHS1      allocateEach[1]  1
    RHS1      allocateEach[2]  1
    RHS1      allocateEach[3]  1
    RHS1      allocateEach[4]  1
    RHS1      allocateEach[5]  1
    RHS1      allocateEach[6]  1
    RHS1      allocateEach[7]  1
    RHS1      allocateEach[8]  1
    RHS1      allocateEach[9]  1
    RHS1      allocateEach[10]  1
    RHS1      allocateEach[11]  1
    RHS1      allocateEach[12]  1
    RHS1      allocateEach[13]  1
    RHS1      allocateEach[14]  1
    RHS1      allocateEach[15]  1
    RHS1      allocateEach[16]  1
    RHS1      allocateEach[17]  1
    RHS1      allocateEach[18]  1
    RHS1      allocateEach[19]  1
    RHS1      allocateEach[20]  1
    RHS1      allocateAllCash  1
BOUNDS
 UP BND1      z         1
 MI BND1      cashProportion[1]
 UP BND1      cashProportion[1]  1
 MI BND1      cashProportion[2]
 UP BND1      cashProportion[2]  1
 MI BND1      cashProportion[3]
 UP BND1      cashProportion[3]  1
 BV BND1      x[1,1]  
 BV BND1      x[1,2]  
 BV BND1      x[1,3]  
 BV BND1      x[1,4]  
 BV BND1      x[1,5]  
 BV BND1      x[1,6]  
 BV BND1      x[1,7]  
 BV BND1      x[1,8]  
 BV BND1      x[1,9]  
 BV BND1      x[1,10] 
 BV BND1      x[1,11] 
 BV BND1      x[1,12] 
 BV BND1      x[1,13] 
 BV BND1      x[1,14] 
 BV BND1      x[1,15] 
 BV BND1      x[1,16] 
 BV BND1      x[1,17] 
 BV BND1      x[1,18] 
 BV BND1      x[1,19] 
 BV BND1      x[1,20] 
 BV BND1      x[2,1]  
 BV BND1      x[2,2]  
 BV BND1      x[2,3]  
 BV BND1      x[2,4]  
 BV BND1      x[2,5]  
 BV BND1      x[2,6]  
 BV BND1      x[2,7]  
 BV BND1      x[2,8]  
 BV BND1      x[2,9]  
 BV BND1      x[2,10] 
 BV BND1      x[2,11] 
 BV BND1      x[2,12] 
 BV BND1      x[2,13] 
 BV BND1      x[2,14] 
 BV BND1      x[2,15] 
 BV BND1      x[2,16] 
 BV BND1      x[2,17] 
 BV BND1      x[2,18] 
 BV BND1      x[2,19] 
 BV BND1      x[2,20] 
 BV BND1      x[3,1]  
 BV BND1      x[3,2]  
 BV BND1      x[3,3]  
 BV BND1      x[3,4]  
 BV BND1      x[3,5]  
 BV BND1      x[3,6]  
 BV BND1      x[3,7]  
 BV BND1      x[3,8]  
 BV BND1      x[3,9]  
 BV BND1      x[3,10] 
 BV BND1      x[3,11] 
 BV BND1      x[3,12] 
 BV BND1      x[3,13] 
 BV BND1      x[3,14] 
 BV BND1      x[3,15] 
 BV BND1      x[3,16] 
 BV BND1      x[3,17] 
 BV BND1      x[3,18] 
 BV BND1      x[3,19] 
 BV BND1      x[3,20] 
ENDATA
